Copyright (C) 2013-2015, Filipe Brandao
Build (method = -2)
  #dp: 4731
  Step-3' Graph: 83 vertices and 1747 arcs (0.00s)
  Step-4' Graph: 83 vertices and 1747 arcs (0.00s)
  #V4/#V3 = 1.00
  #A4/#A3 = 1.00
Ready! (0.00s)
Optimize a model with 144 rows, 1748 columns and 5091 nonzeros
Found heuristic solution: objective 381
Presolve removed 22 rows and 22 columns
Presolve time: 0.01s
Presolved: 122 rows, 1726 columns, 5027 nonzeros
Variable types: 0 continuous, 1726 integer (0 binary)
Optimize a model with 122 rows, 1726 columns and 5027 nonzeros
Presolved: 122 rows, 1726 columns, 5027 nonzeros

Root barrier log...

Ordering time: 0.00s

Barrier statistics:
 AA' NZ     : 3.302e+03
 Factor NZ  : 5.073e+03
 Factor Ops : 2.852e+05 (less than 1 second per iteration)
 Threads    : 1

                  Objective                Residual
Iter       Primal          Dual         Primal    Dual     Compl     Time
   0   6.07570511e+03 -2.82463976e+04  4.03e+04 2.22e-16  7.48e+01     0s
   1   1.92752323e+03 -1.20627252e+04  7.35e+03 5.55e-16  1.51e+01     0s
   2   6.15462442e+02 -5.07989568e+03  6.38e+02 1.13e-02  2.41e+00     0s
   3   4.80678534e+02 -1.29920665e+03  8.21e-02 2.47e-03  5.10e-01     0s
   4   4.05391772e+02 -5.78956761e+02  1.30e-02 1.10e-03  2.82e-01     0s
   5   3.20977544e+02 -1.73867070e+02  6.64e-03 1.83e-04  1.42e-01     0s
   6   2.75338932e+02  1.43416000e+01  3.54e-03 3.07e-16  7.47e-02     0s
   7   2.33945067e+02  1.02824196e+02  1.74e-03 2.22e-16  3.75e-02     0s
   8   2.12315871e+02  1.37780668e+02  7.87e-04 1.85e-16  2.13e-02     0s
   9   2.09350237e+02  1.56462938e+02  5.62e-04 2.22e-16  1.51e-02     0s
  10   2.06439805e+02  1.81007236e+02  3.62e-04 2.22e-16  7.28e-03     0s
  11   2.01385798e+02  1.88015527e+02  1.58e-04 2.22e-16  3.83e-03     0s
  12   1.99695245e+02  1.92379596e+02  1.01e-04 1.88e-16  2.09e-03     0s
  13   1.98077770e+02  1.93681419e+02  4.50e-05 1.54e-16  1.26e-03     0s
  14   1.97373755e+02  1.95411139e+02  1.94e-05 2.22e-16  5.62e-04     0s
  15   1.97201383e+02  1.95877728e+02  1.46e-05 2.22e-16  3.79e-04     0s
  16   1.96984913e+02  1.96435612e+02  8.52e-06 3.33e-16  1.57e-04     0s
  17   1.96748305e+02  1.96726923e+02  2.12e-07 3.56e-16  6.12e-06     0s
  18   1.96740008e+02  1.96739987e+02  3.41e-13 2.66e-16  6.12e-09     0s
  19   1.96740000e+02  1.96740000e+02  3.98e-13 3.33e-16  6.19e-15     0s

Barrier solved model in 19 iterations and 0.01 seconds
Optimal objective 1.96740000e+02


Root relaxation: objective 1.967400e+02, 1136 iterations, 0.02 seconds

    Nodes    |    Current Node    |     Objective Bounds      |     Work
 Expl Unexpl |  Obj  Depth IntInf | Incumbent    BestBd   Gap | It/Node Time

     0     0  196.74000    0   44  381.00000  196.74000  48.4%     -    0s
H    0     0                     199.0000000  196.74000  1.14%     -    0s
H    0     0                     197.0000000  196.74000  0.13%     -    0s

Explored 0 nodes (1836 simplex iterations) in 0.06 seconds
Thread count was 1 (of 4 available processors)

Optimal solution found (tolerance 0.00e+00)
Best objective 1.970000000000e+02, best bound 1.970000000000e+02, gap 0.0%
Preprocessing time: 0.01 seconds
Gurobi run time: 0.06 seconds
Total run time: 0.07 seconds
Objective: 197
Solution:
8 x [i=1, i=41]
2 x [i=1, i=51, i=61]
3 x [i=1, i=52, i=60]
8 x [i=2, i=40]
6 x [i=3, i=50, i=60]
2 x [i=3, i=55, i=55]
6 x [i=4, i=38]
11 x [i=5, i=37]
2 x [i=5, i=52, i=56]
2 x [i=6, i=36]
1 x [i=6, i=50, i=57]
7 x [i=7, i=35]
9 x [i=8, i=46, i=59]
2 x [i=9, i=33]
6 x [i=9, i=43, i=61]
8 x [i=10, i=32]
5 x [i=11, i=31]
8 x [i=12, i=30]
6 x [i=13, i=29]
2 x [i=13, i=42, i=58]
1 x [i=13, i=45, i=55]
6 x [i=14, i=28]
7 x [i=15, i=27]
2 x [i=16, i=26]
5 x [i=17, i=25]
8 x [i=18, i=24]
6 x [i=19, i=23]
3 x [i=19, i=44, i=50]
5 x [i=20, i=22]
5 x [i=20, i=45, i=48]
1 x [i=21, i=44, i=48]
5 x [i=21, i=21]
2 x [i=24, i=31, i=58]
1 x [i=25, i=34, i=54]
1 x [i=25, i=40, i=48]
1 x [i=25, i=46, i=54, i=59]
1 x [i=25, i=50, i=54, i=55]
1 x [i=26, i=44, i=48]
1 x [i=26, i=44, i=54, i=60]
2 x [i=26, i=48, i=50, i=60]
2 x [i=26, i=49, i=53, i=56]
1 x [i=26, i=55, i=57, i=57, i=60]
2 x [i=26, i=26, i=61]
3 x [i=28, i=42, i=43]
6 x [i=30, i=36, i=47]
1 x [i=32, i=35, i=46]
2 x [i=33, i=39, i=55, i=57]
4 x [i=33, i=42, i=51, i=58]
4 x [i=34, i=45, i=49, i=56]
2 x [i=36, i=39, i=52, i=57]
1 x [i=38, i=54, i=54, i=59]
1 x [i=43, i=49, i=54, i=54, i=55]
